Route #1: 1 6 37 41 11 18 17 19 39
Route #2: 1 3 35 31 50 10 21
Route #3: 1 43 14 30 40 15 44
Route #4: 1 49 34 20 4 36 22 45 2
Route #5: 1 51 16 24 48 46 26 47 23 25
Route #6: 1 42 32 28 33 38 13 9
Route #7: 1 27 29 8 7 12 5
cost 1120
